GeneratedTests/Random_8/Random_8_2.tsp
NAME: Random_8_2
TYPE: TSP
DIMENSION: 8
EDGE_WEIGHT_TYPE: EUC_2D
NODE_COORD_SECTION
1 3.6719441 4.3344584
2 5.633058 11.328791
3 14.839968 2.3185759
4 4.0596685 18.401308
5 6.669957 20.057447
6 14.4983 23.684399
7 23.44218 16.68064
8 20.651943 11.644083
EOF
