GeneratedTests/Random_8/Random_8_2.txt
NAME: Random_8_2
TYPE: TSP
DIMENSION: 8
EDGE_WEIGHT_TYPE: EUC_2D
NODE_COORD_SECTION
1 8.701603 10.399575
2 2.5650315 23.541039
3 17.077917 23.510944
4 9.229005 10.427233
5 16.474163 12.034798
6 6.524796 12.979076
7 7.0968046 22.672974
8 10.486653 6.861697
EOF
